957775
0,3,65,94,21,51,64,53,97,22,10,27,45,33,70,89,58,23,42,18,11,93,25,16,39,28,78,50,77,24,72,6,80,38,83,91,13,85,44,14,15,57,81,66,60,82,86,47,36,12,62,67,98,79,37,75,87,49,35,71,90,52,7,88,84,2,4,63,1,26,34,96,41,43,54,48,9,55,68,74,5,40,17,76,29,95,20,19,59,30,61,92,31,73,69,32,8,56,46,0